;; ===================== PROJECTED CANON (QE) =====================
;; Each clause below is entailed by Proj = ∃W.F over the canonical vocabulary.
;; Units appear first for clarity; OR-clauses (SAT-filtered) follow.
;; ==================================================================

;; Unit Bool constraints (entailed)
(assert (not patient_has_finding_of_chronic_kidney_disease_now))
(assert (not patient_has_finding_of_diabetes_mellitus_now))
(assert (not patient_has_finding_of_moderate_asthma_now))
(assert (not patient_has_finding_of_severe_asthma_now))
(assert (not patient_has_finding_of_allergy_to_drug_now))
(assert (not patient_has_finding_of_propensity_to_adverse_reactions_to_drug_now))
(assert (not patient_has_finding_of_allergy_to_methacholine_now))
(assert (not patient_has_finding_of_blood_coagulation_disorder_now))
(assert (not patient_is_pregnant_now))
